(set-option :produce-models true)
(set-logic QF_LRA)
(set-info :notes | Strip-packing problem.|)
(declare-fun x0 () Real)
(declare-fun y0 () Real)
(declare-fun x1 () Real)
(declare-fun y1 () Real)
(declare-fun x2 () Real)
(declare-fun y2 () Real)
(declare-fun x3 () Real)
(declare-fun y3 () Real)
(declare-fun x4 () Real)
(declare-fun y4 () Real)
(declare-fun x5 () Real)
(declare-fun y5 () Real)
(declare-fun x6 () Real)
(declare-fun y6 () Real)
(declare-fun x7 () Real)
(declare-fun y7 () Real)
(declare-fun x8 () Real)
(declare-fun y8 () Real)
(declare-fun x9 () Real)
(declare-fun y9 () Real)
(declare-fun x10 () Real)
(declare-fun y10 () Real)
(declare-fun x11 () Real)
(declare-fun y11 () Real)
(declare-fun z () Real)
(declare-fun c () Real)
(assert (and (= c z) (and (>= x0 0) 
(and (>= y0 0) 
(and (>= x1 0) 
(and (>= y1 0) 
(and (>= x2 0) 
(and (>= y2 0) 
(and (>= x3 0) 
(and (>= y3 0) 
(and (>= x4 0) 
(and (>= y4 0) 
(and (>= x5 0) 
(and (>= y5 0) 
(and (>= x6 0) 
(and (>= y6 0) 
(and (>= x7 0) 
(and (>= y7 0) 
(and (>= x8 0) 
(and (>= y8 0) 
(and (>= x9 0) 
(and (>= y9 0) 
(and (>= x10 0) 
(and (>= y10 0) 
(and (>= x11 0) 
(and (>= y11 0) 
(and (>= z 0) 
(and (>= c 0) 
(and (<= (+ x0 0.1616373953) z) 
(and (<= 0.9089724987 y0) 
(and (<= y0 1.73205080757) 
(and (<= x0 (- 2.3589613581 0.1616373953)) 
(and (>= x0 0) 
(and (<= (+ x1 0.3179954394) z) 
(and (<= 0.9083973919 y1) 
(and (<= y1 1.73205080757) 
(and (<= x1 (- 2.3589613581 0.3179954394)) 
(and (>= x1 0) 
(and (<= (+ x2 0.471981378) z) 
(and (<= 0.8921433167 y2) 
(and (<= y2 1.73205080757) 
(and (<= x2 (- 2.3589613581 0.471981378)) 
(and (>= x2 0) 
(and (<= (+ x3 0.9248473678) z) 
(and (<= 0.7114140173 y3) 
(and (<= y3 1.73205080757) 
(and (<= x3 (- 2.3589613581 0.9248473678)) 
(and (>= x3 0) 
(and (<= (+ x4 0.3689620347) z) 
(and (<= 0.6307701659 y4) 
(and (<= y4 1.73205080757) 
(and (<= x4 (- 2.3589613581 0.3689620347)) 
(and (>= x4 0) 
(and (<= (+ x5 0.7180754771) z) 
(and (<= 0.6214271562 y5) 
(and (<= y5 1.73205080757) 
(and (<= x5 (- 2.3589613581 0.7180754771)) 
(and (>= x5 0) 
(and (<= (+ x6 0.2638684629) z) 
(and (<= 0.5561225553 y6) 
(and (<= y6 1.73205080757) 
(and (<= x6 (- 2.3589613581 0.2638684629)) 
(and (>= x6 0) 
(and (<= (+ x7 0.1654497114) z) 
(and (<= 0.4849822742 y7) 
(and (<= y7 1.73205080757) 
(and (<= x7 (- 2.3589613581 0.1654497114)) 
(and (>= x7 0) 
(and (<= (+ x8 0.3170500662) z) 
(and (<= 0.3993316383 y8) 
(and (<= y8 1.73205080757) 
(and (<= x8 (- 2.3589613581 0.3170500662)) 
(and (>= x8 0) 
(and (<= (+ x9 0.6388929363) z) 
(and (<= 0.2950471086 y9) 
(and (<= y9 1.73205080757) 
(and (<= x9 (- 2.3589613581 0.6388929363)) 
(and (>= x9 0) 
(and (<= (+ x10 0.3821836511) z) 
(and (<= 0.1580800954 y10) 
(and (<= y10 1.73205080757) 
(and (<= x10 (- 2.3589613581 0.3821836511)) 
(and (>= x10 0) 
(and (<= (+ x11 0.0403839365) z) 
(and (<= 0.0287440352 y11) 
(and (<= y11 1.73205080757) 
(and (<= x11 (- 2.3589613581 0.0403839365)) 
(and (>= x11 0) 
(and (<= c 2.3589613581) 
(and (or (<= (+ x0 0.1616373953) x1) (or (<= (+ x1 0.3179954394) x0) (or (>= (- y0 0.9089724987) y1) (or (>= (- y1 0.9083973919) y0))))) 
(and (or (<= (+ x0 0.1616373953) x2) (or (<= (+ x2 0.471981378) x0) (or (>= (- y0 0.9089724987) y2) (or (>= (- y2 0.8921433167) y0))))) 
(and (or (<= (+ x0 0.1616373953) x3) (or (<= (+ x3 0.9248473678) x0) (or (>= (- y0 0.9089724987) y3) (or (>= (- y3 0.7114140173) y0))))) 
(and (or (<= (+ x0 0.1616373953) x4) (or (<= (+ x4 0.3689620347) x0) (or (>= (- y0 0.9089724987) y4) (or (>= (- y4 0.6307701659) y0))))) 
(and (or (<= (+ x0 0.1616373953) x5) (or (<= (+ x5 0.7180754771) x0) (or (>= (- y0 0.9089724987) y5) (or (>= (- y5 0.6214271562) y0))))) 
(and (or (<= (+ x0 0.1616373953) x6) (or (<= (+ x6 0.2638684629) x0) (or (>= (- y0 0.9089724987) y6) (or (>= (- y6 0.5561225553) y0))))) 
(and (or (<= (+ x0 0.1616373953) x7) (or (<= (+ x7 0.1654497114) x0) (or (>= (- y0 0.9089724987) y7) (or (>= (- y7 0.4849822742) y0))))) 
(and (or (<= (+ x0 0.1616373953) x8) (or (<= (+ x8 0.3170500662) x0) (or (>= (- y0 0.9089724987) y8) (or (>= (- y8 0.3993316383) y0))))) 
(and (or (<= (+ x0 0.1616373953) x9) (or (<= (+ x9 0.6388929363) x0) (or (>= (- y0 0.9089724987) y9) (or (>= (- y9 0.2950471086) y0))))) 
(and (or (<= (+ x0 0.1616373953) x10) (or (<= (+ x10 0.3821836511) x0) (or (>= (- y0 0.9089724987) y10) (or (>= (- y10 0.1580800954) y0))))) 
(and (or (<= (+ x0 0.1616373953) x11) (or (<= (+ x11 0.0403839365) x0) (or (>= (- y0 0.9089724987) y11) (or (>= (- y11 0.0287440352) y0))))) 
(and (or (<= (+ x1 0.3179954394) x2) (or (<= (+ x2 0.471981378) x1) (or (>= (- y1 0.9083973919) y2) (or (>= (- y2 0.8921433167) y1))))) 
(and (or (<= (+ x1 0.3179954394) x3) (or (<= (+ x3 0.9248473678) x1) (or (>= (- y1 0.9083973919) y3) (or (>= (- y3 0.7114140173) y1))))) 
(and (or (<= (+ x1 0.3179954394) x4) (or (<= (+ x4 0.3689620347) x1) (or (>= (- y1 0.9083973919) y4) (or (>= (- y4 0.6307701659) y1))))) 
(and (or (<= (+ x1 0.3179954394) x5) (or (<= (+ x5 0.7180754771) x1) (or (>= (- y1 0.9083973919) y5) (or (>= (- y5 0.6214271562) y1))))) 
(and (or (<= (+ x1 0.3179954394) x6) (or (<= (+ x6 0.2638684629) x1) (or (>= (- y1 0.9083973919) y6) (or (>= (- y6 0.5561225553) y1))))) 
(and (or (<= (+ x1 0.3179954394) x7) (or (<= (+ x7 0.1654497114) x1) (or (>= (- y1 0.9083973919) y7) (or (>= (- y7 0.4849822742) y1))))) 
(and (or (<= (+ x1 0.3179954394) x8) (or (<= (+ x8 0.3170500662) x1) (or (>= (- y1 0.9083973919) y8) (or (>= (- y8 0.3993316383) y1))))) 
(and (or (<= (+ x1 0.3179954394) x9) (or (<= (+ x9 0.6388929363) x1) (or (>= (- y1 0.9083973919) y9) (or (>= (- y9 0.2950471086) y1))))) 
(and (or (<= (+ x1 0.3179954394) x10) (or (<= (+ x10 0.3821836511) x1) (or (>= (- y1 0.9083973919) y10) (or (>= (- y10 0.1580800954) y1))))) 
(and (or (<= (+ x1 0.3179954394) x11) (or (<= (+ x11 0.0403839365) x1) (or (>= (- y1 0.9083973919) y11) (or (>= (- y11 0.0287440352) y1))))) 
(and (or (<= (+ x2 0.471981378) x3) (or (<= (+ x3 0.9248473678) x2) (or (>= (- y2 0.8921433167) y3) (or (>= (- y3 0.7114140173) y2))))) 
(and (or (<= (+ x2 0.471981378) x4) (or (<= (+ x4 0.3689620347) x2) (or (>= (- y2 0.8921433167) y4) (or (>= (- y4 0.6307701659) y2))))) 
(and (or (<= (+ x2 0.471981378) x5) (or (<= (+ x5 0.7180754771) x2) (or (>= (- y2 0.8921433167) y5) (or (>= (- y5 0.6214271562) y2))))) 
(and (or (<= (+ x2 0.471981378) x6) (or (<= (+ x6 0.2638684629) x2) (or (>= (- y2 0.8921433167) y6) (or (>= (- y6 0.5561225553) y2))))) 
(and (or (<= (+ x2 0.471981378) x7) (or (<= (+ x7 0.1654497114) x2) (or (>= (- y2 0.8921433167) y7) (or (>= (- y7 0.4849822742) y2))))) 
(and (or (<= (+ x2 0.471981378) x8) (or (<= (+ x8 0.3170500662) x2) (or (>= (- y2 0.8921433167) y8) (or (>= (- y8 0.3993316383) y2))))) 
(and (or (<= (+ x2 0.471981378) x9) (or (<= (+ x9 0.6388929363) x2) (or (>= (- y2 0.8921433167) y9) (or (>= (- y9 0.2950471086) y2))))) 
(and (or (<= (+ x2 0.471981378) x10) (or (<= (+ x10 0.3821836511) x2) (or (>= (- y2 0.8921433167) y10) (or (>= (- y10 0.1580800954) y2))))) 
(and (or (<= (+ x2 0.471981378) x11) (or (<= (+ x11 0.0403839365) x2) (or (>= (- y2 0.8921433167) y11) (or (>= (- y11 0.0287440352) y2))))) 
(and (or (<= (+ x3 0.9248473678) x4) (or (<= (+ x4 0.3689620347) x3) (or (>= (- y3 0.7114140173) y4) (or (>= (- y4 0.6307701659) y3))))) 
(and (or (<= (+ x3 0.9248473678) x5) (or (<= (+ x5 0.7180754771) x3) (or (>= (- y3 0.7114140173) y5) (or (>= (- y5 0.6214271562) y3))))) 
(and (or (<= (+ x3 0.9248473678) x6) (or (<= (+ x6 0.2638684629) x3) (or (>= (- y3 0.7114140173) y6) (or (>= (- y6 0.5561225553) y3))))) 
(and (or (<= (+ x3 0.9248473678) x7) (or (<= (+ x7 0.1654497114) x3) (or (>= (- y3 0.7114140173) y7) (or (>= (- y7 0.4849822742) y3))))) 
(and (or (<= (+ x3 0.9248473678) x8) (or (<= (+ x8 0.3170500662) x3) (or (>= (- y3 0.7114140173) y8) (or (>= (- y8 0.3993316383) y3))))) 
(and (or (<= (+ x3 0.9248473678) x9) (or (<= (+ x9 0.6388929363) x3) (or (>= (- y3 0.7114140173) y9) (or (>= (- y9 0.2950471086) y3))))) 
(and (or (<= (+ x3 0.9248473678) x10) (or (<= (+ x10 0.3821836511) x3) (or (>= (- y3 0.7114140173) y10) (or (>= (- y10 0.1580800954) y3))))) 
(and (or (<= (+ x3 0.9248473678) x11) (or (<= (+ x11 0.0403839365) x3) (or (>= (- y3 0.7114140173) y11) (or (>= (- y11 0.0287440352) y3))))) 
(and (or (<= (+ x4 0.3689620347) x5) (or (<= (+ x5 0.7180754771) x4) (or (>= (- y4 0.6307701659) y5) (or (>= (- y5 0.6214271562) y4))))) 
(and (or (<= (+ x4 0.3689620347) x6) (or (<= (+ x6 0.2638684629) x4) (or (>= (- y4 0.6307701659) y6) (or (>= (- y6 0.5561225553) y4))))) 
(and (or (<= (+ x4 0.3689620347) x7) (or (<= (+ x7 0.1654497114) x4) (or (>= (- y4 0.6307701659) y7) (or (>= (- y7 0.4849822742) y4))))) 
(and (or (<= (+ x4 0.3689620347) x8) (or (<= (+ x8 0.3170500662) x4) (or (>= (- y4 0.6307701659) y8) (or (>= (- y8 0.3993316383) y4))))) 
(and (or (<= (+ x4 0.3689620347) x9) (or (<= (+ x9 0.6388929363) x4) (or (>= (- y4 0.6307701659) y9) (or (>= (- y9 0.2950471086) y4))))) 
(and (or (<= (+ x4 0.3689620347) x10) (or (<= (+ x10 0.3821836511) x4) (or (>= (- y4 0.6307701659) y10) (or (>= (- y10 0.1580800954) y4))))) 
(and (or (<= (+ x4 0.3689620347) x11) (or (<= (+ x11 0.0403839365) x4) (or (>= (- y4 0.6307701659) y11) (or (>= (- y11 0.0287440352) y4))))) 
(and (or (<= (+ x5 0.7180754771) x6) (or (<= (+ x6 0.2638684629) x5) (or (>= (- y5 0.6214271562) y6) (or (>= (- y6 0.5561225553) y5))))) 
(and (or (<= (+ x5 0.7180754771) x7) (or (<= (+ x7 0.1654497114) x5) (or (>= (- y5 0.6214271562) y7) (or (>= (- y7 0.4849822742) y5))))) 
(and (or (<= (+ x5 0.7180754771) x8) (or (<= (+ x8 0.3170500662) x5) (or (>= (- y5 0.6214271562) y8) (or (>= (- y8 0.3993316383) y5))))) 
(and (or (<= (+ x5 0.7180754771) x9) (or (<= (+ x9 0.6388929363) x5) (or (>= (- y5 0.6214271562) y9) (or (>= (- y9 0.2950471086) y5))))) 
(and (or (<= (+ x5 0.7180754771) x10) (or (<= (+ x10 0.3821836511) x5) (or (>= (- y5 0.6214271562) y10) (or (>= (- y10 0.1580800954) y5))))) 
(and (or (<= (+ x5 0.7180754771) x11) (or (<= (+ x11 0.0403839365) x5) (or (>= (- y5 0.6214271562) y11) (or (>= (- y11 0.0287440352) y5))))) 
(and (or (<= (+ x6 0.2638684629) x7) (or (<= (+ x7 0.1654497114) x6) (or (>= (- y6 0.5561225553) y7) (or (>= (- y7 0.4849822742) y6))))) 
(and (or (<= (+ x6 0.2638684629) x8) (or (<= (+ x8 0.3170500662) x6) (or (>= (- y6 0.5561225553) y8) (or (>= (- y8 0.3993316383) y6))))) 
(and (or (<= (+ x6 0.2638684629) x9) (or (<= (+ x9 0.6388929363) x6) (or (>= (- y6 0.5561225553) y9) (or (>= (- y9 0.2950471086) y6))))) 
(and (or (<= (+ x6 0.2638684629) x10) (or (<= (+ x10 0.3821836511) x6) (or (>= (- y6 0.5561225553) y10) (or (>= (- y10 0.1580800954) y6))))) 
(and (or (<= (+ x6 0.2638684629) x11) (or (<= (+ x11 0.0403839365) x6) (or (>= (- y6 0.5561225553) y11) (or (>= (- y11 0.0287440352) y6))))) 
(and (or (<= (+ x7 0.1654497114) x8) (or (<= (+ x8 0.3170500662) x7) (or (>= (- y7 0.4849822742) y8) (or (>= (- y8 0.3993316383) y7))))) 
(and (or (<= (+ x7 0.1654497114) x9) (or (<= (+ x9 0.6388929363) x7) (or (>= (- y7 0.4849822742) y9) (or (>= (- y9 0.2950471086) y7))))) 
(and (or (<= (+ x7 0.1654497114) x10) (or (<= (+ x10 0.3821836511) x7) (or (>= (- y7 0.4849822742) y10) (or (>= (- y10 0.1580800954) y7))))) 
(and (or (<= (+ x7 0.1654497114) x11) (or (<= (+ x11 0.0403839365) x7) (or (>= (- y7 0.4849822742) y11) (or (>= (- y11 0.0287440352) y7))))) 
(and (or (<= (+ x8 0.3170500662) x9) (or (<= (+ x9 0.6388929363) x8) (or (>= (- y8 0.3993316383) y9) (or (>= (- y9 0.2950471086) y8))))) 
(and (or (<= (+ x8 0.3170500662) x10) (or (<= (+ x10 0.3821836511) x8) (or (>= (- y8 0.3993316383) y10) (or (>= (- y10 0.1580800954) y8))))) 
(and (or (<= (+ x8 0.3170500662) x11) (or (<= (+ x11 0.0403839365) x8) (or (>= (- y8 0.3993316383) y11) (or (>= (- y11 0.0287440352) y8))))) 
(and (or (<= (+ x9 0.6388929363) x10) (or (<= (+ x10 0.3821836511) x9) (or (>= (- y9 0.2950471086) y10) (or (>= (- y10 0.1580800954) y9))))) 
(and (or (<= (+ x9 0.6388929363) x11) (or (<= (+ x11 0.0403839365) x9) (or (>= (- y9 0.2950471086) y11) (or (>= (- y11 0.0287440352) y9))))) 
(and (or (<= (+ x10 0.3821836511) x11) (or (<= (+ x11 0.0403839365) x10) (or (>= (- y10 0.1580800954) y11) (or (>= (- y11 0.0287440352) y10))))) )))))))))))))))))))))))))))))))))))))))))))))))))))))))))))))))))))))))))))))))))))))))))))))))))))))))))))))))))))))))))))))))))))))))))))))))))))))))))))
(minimize c)
(check-sat)
(get-objectives)
(exit)
